c "688519.clq"
p edge 247 3696
e 1 17
e 1 18
e 1 19
e 1 20
e 1 21
e 1 22
e 1 23
e 1 24
e 1 25
e 1 27
e 1 29
e 1 31
e 1 32
e 1 45
e 1 46
e 1 47
e 1 48
e 1 52
e 1 53
e 1 55
e 1 62
e 1 67
e 1 74
e 1 76
e 1 87
e 1 88
e 1 94
e 1 96
e 1 98
e 1 109
e 1 117
e 1 210
e 2 17
e 2 18
e 2 19
e 2 22
e 2 23
e 2 46
e 2 57
e 2 66
e 2 70
e 2 78
e 2 105
e 2 128
e 2 175
e 2 191
e 2 227
e 3 17
e 3 18
e 3 19
e 3 20
e 3 21
e 3 22
e 3 25
e 3 26
e 3 28
e 3 30
e 3 31
e 3 33
e 3 37
e 3 41
e 3 44
e 3 48
e 3 49
e 3 50
e 3 51
e 3 52
e 3 53
e 3 54
e 3 59
e 3 67
e 3 70
e 3 73
e 3 74
e 3 80
e 3 83
e 3 85
e 3 93
e 3 111
e 3 112
e 3 113
e 3 117
e 3 129
e 3 136
e 3 141
e 3 142
e 3 145
e 3 151
e 3 153
e 3 154
e 3 158
e 3 174
e 3 178
e 3 181
e 3 187
e 3 188
e 3 191
e 3 193
e 3 196
e 3 198
e 3 245
e 4 17
e 4 18
e 4 19
e 4 20
e 4 21
e 4 22
e 4 23
e 4 24
e 4 25
e 4 28
e 4 31
e 4 33
e 4 34
e 4 39
e 4 40
e 4 46
e 4 47
e 4 48
e 4 56
e 4 57
e 4 58
e 4 60
e 4 64
e 4 68
e 4 74
e 4 75
e 4 79
e 4 92
e 4 93
e 4 95
e 4 105
e 4 107
e 4 110
e 4 112
e 4 126
e 4 132
e 4 140
e 4 145
e 4 152
e 4 159
e 4 175
e 4 177
e 4 179
e 4 187
e 4 196
e 4 199
e 4 205
e 4 236
e 4 237
e 5 17
e 5 18
e 5 19
e 5 20
e 5 21
e 5 22
e 5 25
e 5 28
e 5 33
e 5 36
e 5 40
e 5 41
e 5 42
e 5 45
e 5 52
e 5 57
e 5 58
e 5 65
e 5 66
e 5 68
e 5 69
e 5 72
e 5 78
e 5 83
e 5 107
e 5 119
e 5 122
e 5 132
e 5 135
e 5 146
e 5 167
e 5 173
e 5 224
e 5 238
e 6 17
e 6 18
e 6 19
e 6 20
e 6 22
e 6 23
e 6 24
e 6 25
e 6 26
e 6 27
e 6 29
e 6 30
e 6 33
e 6 35
e 6 39
e 6 40
e 6 41
e 6 44
e 6 45
e 6 54
e 6 57
e 6 58
e 6 60
e 6 63
e 6 64
e 6 73
e 6 76
e 6 86
e 6 93
e 6 94
e 6 95
e 6 99
e 6 101
e 6 104
e 6 119
e 6 121
e 6 135
e 6 136
e 6 141
e 6 142
e 6 144
e 6 162
e 6 216
e 6 220
e 6 221
e 6 226
e 6 234
e 6 241
e 6 245
e 7 17
e 7 18
e 7 20
e 7 21
e 7 26
e 7 28
e 7 30
e 7 34
e 7 38
e 7 42
e 7 47
e 7 49
e 7 59
e 7 65
e 7 81
e 7 89
e 7 90
e 7 91
e 7 92
e 7 98
e 7 107
e 7 114
e 7 128
e 7 147
e 7 151
e 7 154
e 7 165
e 7 169
e 7 206
e 7 207
e 7 211
e 7 212
e 7 215
e 7 223
e 7 226
e 8 17
e 8 18
e 8 19
e 8 20
e 8 21
e 8 22
e 8 25
e 8 27
e 8 36
e 8 43
e 8 56
e 8 88
e 8 90
e 8 103
e 8 104
e 8 108
e 8 133
e 8 147
e 8 159
e 8 190
e 8 195
e 8 196
e 9 17
e 9 18
e 9 19
e 9 20
e 9 21
e 9 23
e 9 24
e 9 25
e 9 26
e 9 28
e 9 31
e 9 32
e 9 33
e 9 36
e 9 38
e 9 40
e 9 42
e 9 47
e 9 48
e 9 50
e 9 51
e 9 53
e 9 54
e 9 55
e 9 58
e 9 60
e 9 61
e 9 66
e 9 69
e 9 71
e 9 75
e 9 79
e 9 84
e 9 87
e 9 97
e 9 98
e 9 100
e 9 103
e 9 105
e 9 107
e 9 108
e 9 114
e 9 126
e 9 131
e 9 136
e 9 139
e 9 143
e 9 144
e 9 147
e 9 151
e 9 161
e 9 169
e 9 174
e 9 177
e 9 181
e 9 192
e 9 204
e 9 206
e 9 209
e 9 211
e 9 221
e 9 225
e 9 232
e 9 233
e 9 239
e 10 17
e 10 18
e 10 19
e 10 20
e 10 21
e 10 22
e 10 24
e 10 28
e 10 29
e 10 31
e 10 32
e 10 37
e 10 39
e 10 42
e 10 56
e 10 57
e 10 61
e 10 66
e 10 68
e 10 71
e 10 82
e 10 106
e 10 119
e 10 124
e 10 125
e 10 153
e 10 170
e 10 176
e 10 181
e 10 185
e 10 193
e 10 200
e 10 207
e 10 208
e 10 224
e 11 17
e 11 18
e 11 19
e 11 20
e 11 21
e 11 23
e 11 24
e 11 26
e 11 30
e 11 31
e 11 34
e 11 35
e 11 36
e 11 37
e 11 39
e 11 40
e 11 41
e 11 43
e 11 52
e 11 55
e 11 58
e 11 74
e 11 76
e 11 84
e 11 88
e 11 89
e 11 90
e 11 92
e 11 93
e 11 95
e 11 99
e 11 101
e 11 102
e 11 106
e 11 111
e 11 115
e 11 117
e 11 120
e 11 121
e 11 125
e 11 127
e 11 130
e 11 132
e 11 133
e 11 139
e 11 140
e 11 141
e 11 155
e 11 168
e 11 183
e 11 190
e 11 195
e 11 208
e 11 211
e 11 214
e 11 231
e 11 236
e 11 237
e 12 17
e 12 18
e 12 19
e 12 20
e 12 21
e 12 22
e 12 23
e 12 24
e 12 25
e 12 26
e 12 27
e 12 28
e 12 29
e 12 30
e 12 31
e 12 32
e 12 33
e 12 35
e 12 36
e 12 38
e 12 41
e 12 43
e 12 44
e 12 45
e 12 46
e 12 47
e 12 50
e 12 51
e 12 56
e 12 57
e 12 66
e 12 67
e 12 70
e 12 72
e 12 74
e 12 79
e 12 80
e 12 90
e 12 93
e 12 96
e 12 98
e 12 99
e 12 100
e 12 101
e 12 102
e 12 103
e 12 107
e 12 109
e 12 111
e 12 112
e 12 116
e 12 124
e 12 125
e 12 131
e 12 133
e 12 136
e 12 141
e 12 148
e 12 153
e 12 158
e 12 160
e 12 164
e 12 165
e 12 176
e 12 179
e 12 182
e 12 185
e 12 186
e 12 191
e 12 198
e 12 203
e 12 205
e 12 219
e 12 229
e 12 233
e 12 246
e 13 17
e 13 18
e 13 19
e 13 20
e 13 21
e 13 22
e 13 23
e 13 24
e 13 25
e 13 26
e 13 27
e 13 28
e 13 29
e 13 30
e 13 32
e 13 33
e 13 36
e 13 37
e 13 39
e 13 45
e 13 48
e 13 49
e 13 54
e 13 58
e 13 62
e 13 65
e 13 70
e 13 71
e 13 72
e 13 78
e 13 80
e 13 81
e 13 83
e 13 87
e 13 88
e 13 91
e 13 94
e 13 95
e 13 99
e 13 100
e 13 118
e 13 122
e 13 128
e 13 142
e 13 149
e 13 157
e 13 191
e 13 192
e 13 205
e 13 217
e 13 230
e 13 241
e 14 17
e 14 19
e 14 22
e 14 37
e 14 41
e 14 43
e 14 48
e 14 50
e 14 54
e 14 61
e 14 63
e 14 64
e 14 69
e 14 87
e 14 90
e 14 92
e 14 103
e 14 105
e 14 108
e 14 118
e 14 124
e 14 126
e 14 141
e 14 167
e 14 180
e 14 184
e 14 191
e 14 211
e 14 222
e 15 17
e 15 18
e 15 23
e 15 24
e 15 27
e 15 29
e 15 30
e 15 71
e 15 73
e 15 81
e 15 115
e 15 125
e 15 177
e 15 185
e 15 229
e 15 241
e 15 243
e 16 17
e 16 18
e 16 19
e 16 20
e 16 21
e 16 23
e 16 25
e 16 26
e 16 29
e 16 30
e 16 36
e 16 37
e 16 40
e 16 41
e 16 44
e 16 49
e 16 52
e 16 53
e 16 54
e 16 56
e 16 64
e 16 65
e 16 67
e 16 75
e 16 77
e 16 81
e 16 86
e 16 91
e 16 92
e 16 104
e 16 116
e 16 123
e 16 127
e 16 129
e 16 133
e 16 135
e 16 139
e 16 142
e 16 152
e 16 160
e 16 169
e 16 182
e 16 192
e 16 198
e 16 202
e 16 213
e 16 214
e 16 215
e 16 229
e 16 236
e 16 242
e 16 244
e 17 18
e 17 19
e 17 20
e 17 21
e 17 22
e 17 23
e 17 24
e 17 25
e 17 26
e 17 27
e 17 28
e 17 29
e 17 31
e 17 32
e 17 34
e 17 37
e 17 38
e 17 39
e 17 40
e 17 41
e 17 42
e 17 43
e 17 44
e 17 45
e 17 46
e 17 47
e 17 48
e 17 52
e 17 54
e 17 56
e 17 57
e 17 59
e 17 61
e 17 63
e 17 64
e 17 65
e 17 67
e 17 68
e 17 69
e 17 72
e 17 73
e 17 74
e 17 76
e 17 78
e 17 79
e 17 80
e 17 81
e 17 87
e 17 94
e 17 95
e 17 105
e 17 107
e 17 108
e 17 122
e 17 126
e 17 128
e 17 139
e 17 162
e 17 168
e 17 174
e 17 176
e 17 178
e 17 180
e 17 186
e 17 198
e 17 200
e 17 201
e 17 211
e 17 213
e 17 215
e 17 218
e 17 225
e 17 233
e 17 236
e 18 19
e 18 20
e 18 21
e 18 22
e 18 23
e 18 24
e 18 25
e 18 26
e 18 27
e 18 28
e 18 29
e 18 31
e 18 32
e 18 34
e 18 35
e 18 36
e 18 37
e 18 40
e 18 42
e 18 43
e 18 45
e 18 46
e 18 52
e 18 53
e 18 54
e 18 57
e 18 62
e 18 69
e 18 71
e 18 73
e 18 76
e 18 77
e 18 81
e 18 83
e 18 86
e 18 87
e 18 92
e 18 98
e 18 102
e 18 104
e 18 112
e 18 113
e 18 119
e 18 122
e 18 123
e 18 125
e 18 130
e 18 136
e 18 138
e 18 145
e 18 146
e 18 149
e 18 150
e 18 161
e 18 164
e 18 172
e 18 179
e 18 194
e 18 197
e 18 198
e 18 199
e 18 202
e 18 203
e 18 209
e 18 218
e 18 220
e 18 223
e 18 229
e 18 231
e 18 234
e 18 238
e 19 20
e 19 21
e 19 22
e 19 23
e 19 24
e 19 25
e 19 27
e 19 28
e 19 29
e 19 30
e 19 31
e 19 32
e 19 33
e 19 34
e 19 35
e 19 38
e 19 39
e 19 40
e 19 41
e 19 42
e 19 44
e 19 46
e 19 50
e 19 51
e 19 52
e 19 62
e 19 63
e 19 64
e 19 65
e 19 66
e 19 67
e 19 68
e 19 70
e 19 71
e 19 72
e 19 77
e 19 78
e 19 83
e 19 84
e 19 90
e 19 93
e 19 96
e 19 98
e 19 99
e 19 100
e 19 101
e 19 104
e 19 105
e 19 107
e 19 110
e 19 111
e 19 114
e 19 116
e 19 117
e 19 120
e 19 123
e 19 125
e 19 127
e 19 134
e 19 142
e 19 144
e 19 158
e 19 166
e 19 169
e 19 172
e 19 174
e 19 176
e 19 179
e 19 182
e 19 183
e 19 186
e 19 189
e 19 190
e 19 191
e 19 193
e 19 197
e 19 199
e 19 203
e 19 207
e 19 211
e 19 212
e 19 213
e 19 214
e 19 222
e 19 238
e 19 242
e 19 243
e 20 21
e 20 22
e 20 23
e 20 24
e 20 25
e 20 26
e 20 27
e 20 28
e 20 29
e 20 30
e 20 31
e 20 32
e 20 34
e 20 35
e 20 36
e 20 38
e 20 40
e 20 42
e 20 44
e 20 49
e 20 50
e 20 51
e 20 53
e 20 54
e 20 59
e 20 61
e 20 64
e 20 65
e 20 71
e 20 74
e 20 76
e 20 78
e 20 81
e 20 85
e 20 87
e 20 91
e 20 96
e 20 98
e 20 99
e 20 111
e 20 112
e 20 113
e 20 122
e 20 123
e 20 124
e 20 126
e 20 128
e 20 139
e 20 144
e 20 147
e 20 148
e 20 149
e 20 150
e 20 151
e 20 153
e 20 154
e 20 155
e 20 156
e 20 162
e 20 166
e 20 169
e 20 170
e 20 171
e 20 175
e 20 179
e 20 183
e 20 184
e 20 190
e 20 200
e 20 201
e 20 215
e 20 217
e 20 219
e 20 220
e 20 223
e 20 232
e 20 238
e 20 240
e 20 242
e 20 243
e 21 22
e 21 23
e 21 24
e 21 25
e 21 26
e 21 27
e 21 28
e 21 31
e 21 32
e 21 33
e 21 35
e 21 36
e 21 37
e 21 38
e 21 39
e 21 42
e 21 45
e 21 47
e 21 51
e 21 53
e 21 55
e 21 58
e 21 64
e 21 65
e 21 66
e 21 67
e 21 69
e 21 71
e 21 75
e 21 77
e 21 80
e 21 85
e 21 91
e 21 92
e 21 93
e 21 97
e 21 102
e 21 103
e 21 109
e 21 110
e 21 119
e 21 121
e 21 127
e 21 130
e 21 131
e 21 132
e 21 134
e 21 142
e 21 149
e 21 171
e 21 177
e 21 178
e 21 179
e 21 183
e 21 187
e 21 188
e 21 192
e 21 199
e 21 217
e 21 223
e 21 227
e 21 231
e 21 232
e 21 234
e 21 241
e 22 23
e 22 24
e 22 26
e 22 27
e 22 29
e 22 30
e 22 31
e 22 32
e 22 33
e 22 34
e 22 35
e 22 37
e 22 40
e 22 45
e 22 46
e 22 47
e 22 48
e 22 50
e 22 52
e 22 53
e 22 55
e 22 57
e 22 58
e 22 59
e 22 60
e 22 66
e 22 75
e 22 78
e 22 80
e 22 83
e 22 85
e 22 87
e 22 88
e 22 92
e 22 93
e 22 96
e 22 98
e 22 99
e 22 100
e 22 101
e 22 102
e 22 108
e 22 110
e 22 114
e 22 115
e 22 120
e 22 121
e 22 126
e 22 129
e 22 131
e 22 140
e 22 141
e 22 142
e 22 146
e 22 152
e 22 155
e 22 156
e 22 158
e 22 160
e 22 170
e 22 172
e 22 180
e 22 182
e 22 183
e 22 186
e 22 194
e 22 205
e 22 209
e 22 219
e 22 222
e 22 233
e 22 234
e 22 236
e 22 239
e 22 240
e 22 243
e 23 24
e 23 25
e 23 26
e 23 27
e 23 28
e 23 30
e 23 34
e 23 35
e 23 38
e 23 39
e 23 43
e 23 46
e 23 49
e 23 50
e 23 51
e 23 52
e 23 53
e 23 55
e 23 56
e 23 57
e 23 62
e 23 68
e 23 72
e 23 77
e 23 78
e 23 79
e 23 80
e 23 82
e 23 84
e 23 87
e 23 92
e 23 96
e 23 102
e 23 103
e 23 104
e 23 111
e 23 112
e 23 117
e 23 121
e 23 125
e 23 134
e 23 135
e 23 139
e 23 143
e 23 148
e 23 161
e 23 164
e 23 173
e 23 178
e 23 180
e 23 181
e 23 185
e 23 190
e 23 192
e 23 194
e 23 206
e 23 212
e 23 214
e 23 227
e 23 229
e 23 230
e 23 235
e 23 238
e 23 239
e 23 247
e 24 26
e 24 27
e 24 28
e 24 29
e 24 30
e 24 33
e 24 36
e 24 37
e 24 38
e 24 39
e 24 40
e 24 47
e 24 48
e 24 49
e 24 50
e 24 55
e 24 58
e 24 60
e 24 67
e 24 77
e 24 82
e 24 89
e 24 94
e 24 95
e 24 96
e 24 97
e 24 98
e 24 105
e 24 106
e 24 108
e 24 123
e 24 124
e 24 127
e 24 129
e 24 131
e 24 133
e 24 134
e 24 135
e 24 136
e 24 138
e 24 156
e 24 157
e 24 158
e 24 161
e 24 163
e 24 182
e 24 191
e 24 197
e 24 215
e 24 225
e 24 228
e 24 229
e 24 234
e 24 246
e 25 26
e 25 27
e 25 31
e 25 35
e 25 38
e 25 39
e 25 44
e 25 52
e 25 54
e 25 64
e 25 66
e 25 67
e 25 70
e 25 76
e 25 77
e 25 79
e 25 83
e 25 89
e 25 90
e 25 94
e 25 98
e 25 101
e 25 109
e 25 114
e 25 118
e 25 120
e 25 133
e 25 138
e 25 147
e 25 151
e 25 155
e 25 159
e 25 160
e 25 162
e 25 165
e 25 174
e 25 176
e 25 178
e 25 188
e 25 193
e 25 195
e 25 202
e 25 205
e 25 207
e 25 210
e 25 212
e 25 217
e 25 228
e 25 231
e 26 27
e 26 28
e 26 29
e 26 30
e 26 31
e 26 32
e 26 34
e 26 35
e 26 36
e 26 37
e 26 39
e 26 42
e 26 43
e 26 46
e 26 49
e 26 50
e 26 51
e 26 55
e 26 56
e 26 63
e 26 67
e 26 80
e 26 86
e 26 88
e 26 93
e 26 96
e 26 100
e 26 105
e 26 112
e 26 114
e 26 130
e 26 135
e 26 137
e 26 140
e 26 149
e 26 152
e 26 170
e 26 176
e 26 183
e 26 184
e 26 186
e 26 190
e 26 193
e 26 194
e 26 204
e 26 246
e 26 247
e 27 29
e 27 30
e 27 32
e 27 34
e 27 35
e 27 38
e 27 39
e 27 42
e 27 44
e 27 45
e 27 46
e 27 48
e 27 53
e 27 56
e 27 57
e 27 59
e 27 61
e 27 69
e 27 72
e 27 73
e 27 74
e 27 77
e 27 78
e 27 79
e 27 83
e 27 85
e 27 86
e 27 91
e 27 99
e 27 101
e 27 102
e 27 108
e 27 112
e 27 115
e 27 121
e 27 122
e 27 123
e 27 129
e 27 131
e 27 137
e 27 138
e 27 142
e 27 148
e 27 150
e 27 151
e 27 167
e 27 169
e 27 185
e 27 194
e 27 200
e 27 202
e 27 203
e 27 220
e 27 233
e 27 242
e 27 244
e 28 29
e 28 30
e 28 31
e 28 32
e 28 33
e 28 34
e 28 35
e 28 37
e 28 38
e 28 39
e 28 41
e 28 44
e 28 45
e 28 46
e 28 51
e 28 56
e 28 64
e 28 65
e 28 67
e 28 70
e 28 78
e 28 80
e 28 83
e 28 84
e 28 85
e 28 86
e 28 87
e 28 88
e 28 93
e 28 97
e 28 102
e 28 105
e 28 112
e 28 113
e 28 114
e 28 116
e 28 120
e 28 145
e 28 150
e 28 153
e 28 155
e 28 162
e 28 176
e 28 179
e 28 186
e 28 192
e 28 201
e 28 208
e 28 234
e 28 243
e 29 32
e 29 33
e 29 34
e 29 35
e 29 43
e 29 47
e 29 49
e 29 51
e 29 52
e 29 54
e 29 55
e 29 56
e 29 57
e 29 59
e 29 60
e 29 68
e 29 74
e 29 77
e 29 84
e 29 86
e 29 90
e 29 94
e 29 97
e 29 105
e 29 107
e 29 108
e 29 109
e 29 115
e 29 119
e 29 120
e 29 127
e 29 129
e 29 133
e 29 138
e 29 142
e 29 143
e 29 154
e 29 155
e 29 156
e 29 167
e 29 194
e 29 199
e 29 211
e 29 215
e 29 218
e 29 229
e 29 230
e 29 237
e 29 239
e 29 241
e 30 33
e 30 34
e 30 36
e 30 37
e 30 39
e 30 41
e 30 44
e 30 56
e 30 58
e 30 63
e 30 66
e 30 70
e 30 74
e 30 75
e 30 76
e 30 82
e 30 88
e 30 97
e 30 100
e 30 106
e 30 111
e 30 126
e 30 127
e 30 139
e 30 145
e 30 151
e 30 168
e 30 171
e 30 179
e 30 182
e 30 184
e 30 186
e 30 205
e 30 208
e 30 212
e 30 216
e 30 217
e 30 221
e 30 222
e 30 226
e 30 239
e 31 32
e 31 33
e 31 34
e 31 35
e 31 36
e 31 38
e 31 41
e 31 44
e 31 46
e 31 55
e 31 56
e 31 60
e 31 61
e 31 63
e 31 65
e 31 67
e 31 70
e 31 73
e 31 75
e 31 76
e 31 78
e 31 79
e 31 81
e 31 82
e 31 89
e 31 91
e 31 92
e 31 93
e 31 94
e 31 98
e 31 100
e 31 103
e 31 106
e 31 110
e 31 117
e 31 118
e 31 122
e 31 123
e 31 126
e 31 131
e 31 137
e 31 150
e 31 167
e 31 169
e 31 181
e 31 185
e 31 202
e 31 208
e 31 216
e 31 218
e 31 222
e 31 223
e 31 226
e 31 231
e 31 238
e 31 239
e 32 33
e 32 38
e 32 40
e 32 42
e 32 44
e 32 48
e 32 49
e 32 52
e 32 53
e 32 55
e 32 58
e 32 60
e 32 62
e 32 63
e 32 64
e 32 70
e 32 77
e 32 80
e 32 81
e 32 82
e 32 83
e 32 91
e 32 95
e 32 112
e 32 114
e 32 127
e 32 132
e 32 133
e 32 137
e 32 144
e 32 151
e 32 152
e 32 159
e 32 161
e 32 162
e 32 165
e 32 166
e 32 233
e 32 235
e 32 245
e 33 34
e 33 35
e 33 36
e 33 37
e 33 38
e 33 39
e 33 40
e 33 41
e 33 43
e 33 45
e 33 47
e 33 48
e 33 49
e 33 50
e 33 51
e 33 53
e 33 54
e 33 55
e 33 56
e 33 59
e 33 60
e 33 61
e 33 63
e 33 65
e 33 67
e 33 70
e 33 73
e 33 74
e 33 80
e 33 81
e 33 88
e 33 89
e 33 90
e 33 96
e 33 99
e 33 100
e 33 101
e 33 102
e 33 105
e 33 110
e 33 111
e 33 113
e 33 115
e 33 116
e 33 121
e 33 124
e 33 134
e 33 143
e 33 144
e 33 149
e 33 156
e 33 162
e 33 165
e 33 168
e 33 172
e 33 176
e 33 177
e 33 185
e 33 186
e 33 190
e 33 196
e 33 200
e 33 201
e 33 204
e 33 208
e 33 219
e 33 223
e 33 229
e 33 235
e 33 238
e 33 243
e 33 245
e 34 37
e 34 38
e 34 40
e 34 42
e 34 43
e 34 46
e 34 50
e 34 51
e 34 58
e 34 63
e 34 77
e 34 82
e 34 85
e 34 95
e 34 107
e 34 108
e 34 109
e 34 113
e 34 115
e 34 116
e 34 132
e 34 133
e 34 136
e 34 141
e 34 146
e 34 147
e 34 171
e 34 173
e 34 176
e 34 180
e 34 193
e 34 195
e 34 204
e 34 207
e 34 211
e 34 230
e 34 234
e 34 235
e 34 244
e 35 36
e 35 41
e 35 42
e 35 43
e 35 57
e 35 59
e 35 69
e 35 71
e 35 75
e 35 89
e 35 91
e 35 95
e 35 109
e 35 110
e 35 111
e 35 113
e 35 114
e 35 115
e 35 121
e 35 124
e 35 128
e 35 140
e 35 142
e 35 175
e 35 185
e 35 207
e 35 209
e 35 210
e 35 215
e 35 219
e 35 226
e 35 236
e 35 239
e 35 246
e 36 41
e 36 44
e 36 47
e 36 48
e 36 52
e 36 53
e 36 55
e 36 59
e 36 62
e 36 63
e 36 64
e 36 68
e 36 69
e 36 74
e 36 79
e 36 81
e 36 82
e 36 91
e 36 94
e 36 98
e 36 101
e 36 107
e 36 110
e 36 117
e 36 118
e 36 119
e 36 120
e 36 126
e 36 131
e 36 133
e 36 138
e 36 139
e 36 146
e 36 148
e 36 153
e 36 162
e 36 163
e 36 168
e 36 170
e 36 175
e 36 177
e 36 182
e 36 189
e 36 196
e 36 197
e 36 200
e 36 214
e 36 217
e 36 234
e 36 236
e 36 237
e 36 240
e 36 245
e 37 40
e 37 43
e 37 45
e 37 59
e 37 68
e 37 72
e 37 73
e 37 76
e 37 77
e 37 82
e 37 95
e 37 106
e 37 107
e 37 113
e 37 121
e 37 127
e 37 129
e 37 130
e 37 132
e 37 134
e 37 138
e 37 146
e 37 147
e 37 153
e 37 172
e 37 176
e 37 181
e 37 182
e 37 187
e 37 199
e 37 210
e 37 214
e 37 222
e 37 240
e 37 243
e 38 42
e 38 43
e 38 44
e 38 45
e 38 47
e 38 49
e 38 58
e 38 63
e 38 68
e 38 76
e 38 79
e 38 80
e 38 102
e 38 103
e 38 104
e 38 118
e 38 124
e 38 132
e 38 140
e 38 151
e 38 152
e 38 166
e 38 184
e 38 194
e 38 212
e 38 213
e 38 221
e 38 224
e 38 239
e 39 41
e 39 42
e 39 43
e 39 45
e 39 46
e 39 47
e 39 50
e 39 51
e 39 54
e 39 57
e 39 61
e 39 63
e 39 64
e 39 66
e 39 83
e 39 85
e 39 88
e 39 89
e 39 91
e 39 101
e 39 102
e 39 103
e 39 106
e 39 109
e 39 118
e 39 133
e 39 141
e 39 144
e 39 147
e 39 158
e 39 164
e 39 170
e 39 210
e 39 212
e 39 217
e 39 237
e 39 240
e 39 241
e 40 43
e 40 44
e 40 47
e 40 48
e 40 49
e 40 51
e 40 52
e 40 61
e 40 65
e 40 68
e 40 74
e 40 89
e 40 96
e 40 99
e 40 101
e 40 102
e 40 104
e 40 113
e 40 115
e 40 129
e 40 148
e 40 149
e 40 153
e 40 159
e 40 162
e 40 173
e 40 174
e 40 177
e 40 182
e 40 192
e 40 201
e 40 202
e 40 229
e 40 230
e 40 234
e 41 48
e 41 51
e 41 56
e 41 59
e 41 60
e 41 65
e 41 66
e 41 70
e 41 71
e 41 77
e 41 84
e 41 85
e 41 86
e 41 96
e 41 97
e 41 99
e 41 104
e 41 112
e 41 122
e 41 125
e 41 134
e 41 146
e 41 157
e 41 159
e 41 167
e 41 183
e 41 186
e 41 215
e 41 217
e 41 219
e 41 224
e 42 49
e 42 54
e 42 64
e 42 71
e 42 72
e 42 73
e 42 77
e 42 84
e 42 94
e 42 96
e 42 108
e 42 111
e 42 114
e 42 116
e 42 120
e 42 121
e 42 123
e 42 124
e 42 128
e 42 134
e 42 148
e 42 151
e 42 154
e 42 159
e 42 164
e 42 165
e 42 175
e 42 180
e 42 189
e 42 190
e 42 198
e 42 209
e 42 221
e 42 240
e 43 47
e 43 48
e 43 53
e 43 59
e 43 78
e 43 83
e 43 89
e 43 92
e 43 97
e 43 99
e 43 101
e 43 129
e 43 130
e 43 137
e 43 146
e 43 149
e 43 150
e 43 154
e 43 155
e 43 160
e 43 165
e 43 181
e 43 199
e 43 204
e 43 216
e 43 221
e 43 231
e 43 247
e 44 45
e 44 46
e 44 49
e 44 54
e 44 56
e 44 57
e 44 60
e 44 69
e 44 71
e 44 78
e 44 90
e 44 92
e 44 100
e 44 108
e 44 120
e 44 126
e 44 130
e 44 145
e 44 155
e 44 157
e 44 167
e 44 181
e 44 184
e 44 187
e 44 196
e 44 197
e 44 202
e 45 50
e 45 51
e 45 61
e 45 66
e 45 72
e 45 82
e 45 83
e 45 85
e 45 86
e 45 94
e 45 97
e 45 101
e 45 113
e 45 117
e 45 122
e 45 139
e 45 147
e 45 154
e 45 158
e 45 177
e 45 181
e 45 185
e 45 193
e 45 197
e 45 206
e 45 209
e 45 212
e 45 218
e 45 224
e 45 226
e 45 240
e 46 61
e 46 62
e 46 64
e 46 72
e 46 75
e 46 80
e 46 86
e 46 96
e 46 106
e 46 109
e 46 112
e 46 126
e 46 135
e 46 137
e 46 142
e 46 144
e 46 166
e 46 215
e 46 220
e 47 49
e 47 50
e 47 53
e 47 55
e 47 60
e 47 62
e 47 66
e 47 84
e 47 86
e 47 89
e 47 91
e 47 100
e 47 102
e 47 124
e 47 125
e 47 136
e 47 138
e 47 141
e 47 147
e 47 158
e 47 172
e 47 173
e 47 186
e 47 198
e 47 207
e 47 210
e 47 212
e 47 213
e 47 220
e 47 237
e 48 50
e 48 61
e 48 62
e 48 72
e 48 83
e 48 88
e 48 93
e 48 94
e 48 95
e 48 103
e 48 106
e 48 111
e 48 118
e 48 137
e 48 143
e 48 146
e 48 156
e 48 160
e 48 167
e 48 197
e 48 202
e 48 210
e 48 222
e 49 55
e 49 69
e 49 75
e 49 83
e 49 85
e 49 87
e 49 89
e 49 94
e 49 95
e 49 97
e 49 108
e 49 123
e 49 129
e 49 140
e 49 143
e 49 145
e 49 155
e 49 157
e 49 178
e 49 180
e 49 216
e 49 224
e 49 245
e 50 52
e 50 54
e 50 58
e 50 65
e 50 68
e 50 69
e 50 70
e 50 73
e 50 85
e 50 87
e 50 100
e 50 105
e 50 116
e 50 119
e 50 125
e 50 146
e 50 149
e 50 150
e 50 152
e 50 162
e 50 166
e 50 208
e 50 209
e 50 213
e 50 214
e 50 218
e 50 222
e 50 227
e 50 228
e 50 230
e 50 231
e 50 233
e 51 59
e 51 62
e 51 70
e 51 76
e 51 79
e 51 81
e 51 93
e 51 112
e 51 117
e 51 120
e 51 121
e 51 143
e 51 155
e 51 161
e 51 171
e 51 187
e 51 194
e 51 197
e 51 198
e 51 204
e 51 205
e 51 219
e 51 221
e 51 242
e 51 244
e 52 53
e 52 60
e 52 62
e 52 65
e 52 71
e 52 74
e 52 79
e 52 84
e 52 103
e 52 104
e 52 112
e 52 123
e 52 131
e 52 137
e 52 138
e 52 144
e 52 151
e 52 156
e 52 167
e 52 170
e 52 217
e 52 236
e 53 55
e 53 57
e 53 58
e 53 60
e 53 70
e 53 73
e 53 74
e 53 75
e 53 79
e 53 80
e 53 82
e 53 87
e 53 88
e 53 97
e 53 113
e 53 117
e 53 118
e 53 124
e 53 135
e 53 136
e 53 137
e 53 140
e 53 142
e 53 152
e 53 156
e 53 157
e 53 170
e 53 184
e 53 188
e 53 189
e 53 195
e 53 196
e 53 204
e 53 208
e 53 216
e 53 218
e 53 221
e 53 229
e 53 244
e 54 59
e 54 65
e 54 67
e 54 75
e 54 85
e 54 127
e 54 133
e 54 160
e 54 176
e 54 197
e 54 205
e 54 218
e 54 226
e 54 229
e 55 63
e 55 67
e 55 72
e 55 82
e 55 93
e 55 103
e 55 106
e 55 135
e 55 142
e 55 163
e 55 166
e 55 172
e 55 189
e 55 212
e 55 227
e 55 236
e 55 238
e 56 58
e 56 59
e 56 60
e 56 61
e 56 66
e 56 68
e 56 69
e 56 70
e 56 80
e 56 88
e 56 97
e 56 112
e 56 114
e 56 118
e 56 120
e 56 130
e 56 131
e 56 146
e 56 150
e 56 151
e 56 152
e 56 159
e 56 177
e 56 194
e 56 196
e 56 208
e 56 221
e 56 241
e 57 62
e 57 68
e 57 97
e 57 115
e 57 127
e 57 143
e 57 149
e 57 166
e 57 170
e 57 197
e 57 222
e 57 237
e 57 243
e 57 244
e 58 60
e 58 61
e 58 69
e 58 88
e 58 97
e 58 103
e 58 108
e 58 117
e 58 119
e 58 125
e 58 134
e 58 150
e 58 168
e 58 169
e 58 174
e 58 188
e 58 201
e 58 206
e 58 220
e 58 234
e 58 247
e 59 61
e 59 62
e 59 84
e 59 87
e 59 88
e 59 110
e 59 119
e 59 140
e 59 145
e 59 151
e 59 169
e 59 173
e 59 190
e 59 199
e 59 206
e 59 213
e 59 240
e 60 62
e 60 71
e 60 81
e 60 90
e 60 111
e 60 120
e 60 136
e 60 137
e 60 162
e 60 202
e 60 214
e 60 219
e 60 223
e 60 229
e 60 235
e 61 62
e 61 63
e 61 72
e 61 86
e 61 99
e 61 100
e 61 110
e 61 115
e 61 116
e 61 118
e 61 149
e 61 166
e 61 195
e 61 201
e 61 210
e 61 213
e 61 223
e 61 244
e 62 63
e 62 64
e 62 66
e 62 68
e 62 69
e 62 71
e 62 72
e 62 73
e 62 75
e 62 79
e 62 81
e 62 86
e 62 91
e 62 104
e 62 117
e 62 118
e 62 121
e 62 137
e 62 141
e 62 168
e 62 180
e 62 182
e 62 189
e 62 190
e 62 231
e 62 235
e 62 245
e 63 77
e 63 84
e 63 128
e 63 132
e 63 136
e 63 144
e 63 154
e 63 161
e 63 189
e 63 228
e 64 67
e 64 68
e 64 75
e 64 87
e 64 90
e 64 92
e 64 132
e 64 156
e 64 163
e 64 174
e 64 175
e 64 177
e 64 194
e 64 195
e 65 76
e 65 77
e 65 104
e 65 109
e 65 123
e 65 126
e 65 131
e 65 135
e 65 137
e 65 143
e 65 148
e 65 167
e 65 195
e 65 200
e 65 203
e 65 206
e 65 217
e 65 225
e 65 232
e 65 234
e 65 243
e 65 245
e 66 82
e 66 85
e 66 96
e 66 97
e 66 100
e 66 106
e 66 107
e 66 113
e 66 114
e 66 116
e 66 118
e 66 120
e 66 124
e 66 156
e 66 157
e 66 166
e 66 184
e 66 209
e 66 226
e 66 245
e 67 69
e 67 73
e 67 75
e 67 76
e 67 78
e 67 80
e 67 84
e 67 90
e 67 116
e 67 144
e 67 145
e 67 158
e 67 174
e 67 178
e 67 197
e 67 198
e 67 208
e 67 219
e 67 224
e 67 245
e 68 74
e 68 75
e 68 82
e 68 86
e 68 89
e 68 90
e 68 106
e 68 110
e 68 125
e 68 130
e 68 136
e 68 142
e 68 149
e 68 156
e 68 163
e 68 172
e 68 186
e 68 196
e 68 213
e 68 223
e 68 237
e 69 76
e 69 84
e 69 89
e 69 91
e 69 94
e 69 98
e 69 109
e 69 123
e 69 135
e 69 136
e 69 165
e 69 177
e 69 179
e 69 192
e 69 197
e 70 71
e 70 73
e 70 81
e 70 82
e 70 84
e 70 99
e 70 102
e 70 107
e 70 109
e 70 123
e 70 127
e 70 137
e 70 153
e 70 188
e 70 190
e 70 203
e 70 211
e 70 213
e 70 220
e 70 228
e 70 231
e 70 234
e 70 239
e 71 72
e 71 76
e 71 86
e 71 89
e 71 107
e 71 130
e 71 134
e 71 149
e 71 157
e 71 175
e 71 185
e 71 187
e 71 190
e 71 191
e 71 206
e 71 225
e 72 73
e 72 78
e 72 98
e 72 99
e 72 127
e 72 131
e 72 162
e 72 166
e 72 171
e 72 175
e 72 179
e 72 190
e 72 199
e 72 222
e 72 247
e 73 83
e 73 119
e 73 136
e 73 161
e 73 164
e 73 167
e 73 172
e 73 198
e 73 205
e 73 217
e 74 85
e 74 96
e 74 104
e 74 120
e 74 130
e 74 146
e 74 149
e 74 153
e 74 154
e 74 175
e 75 78
e 75 95
e 75 98
e 75 131
e 75 140
e 75 144
e 75 164
e 75 165
e 75 178
e 75 180
e 75 183
e 75 200
e 75 226
e 75 229
e 75 239
e 76 85
e 76 90
e 76 93
e 76 95
e 76 103
e 76 104
e 76 105
e 76 116
e 76 121
e 76 122
e 76 124
e 76 131
e 76 153
e 76 158
e 76 179
e 76 180
e 76 188
e 76 190
e 76 199
e 76 201
e 76 203
e 76 222
e 76 232
e 76 233
e 76 237
e 76 246
e 77 79
e 77 89
e 77 91
e 77 92
e 77 159
e 77 185
e 77 191
e 77 232
e 78 79
e 78 81
e 78 90
e 78 92
e 78 95
e 78 103
e 78 125
e 78 128
e 78 130
e 78 132
e 78 150
e 78 159
e 78 172
e 78 173
e 78 188
e 78 195
e 78 203
e 78 206
e 78 212
e 78 232
e 78 235
e 79 91
e 79 106
e 79 110
e 79 114
e 79 118
e 79 119
e 79 122
e 79 128
e 79 134
e 79 150
e 79 153
e 79 156
e 79 174
e 79 178
e 79 183
e 79 191
e 79 192
e 79 204
e 79 209
e 79 234
e 79 236
e 80 104
e 80 173
e 80 188
e 80 224
e 80 233
e 81 82
e 81 84
e 81 92
e 81 94
e 81 95
e 81 98
e 81 109
e 81 119
e 81 123
e 81 124
e 81 135
e 81 139
e 81 145
e 81 155
e 81 165
e 81 181
e 81 184
e 81 191
e 81 203
e 81 233
e 81 240
e 82 101
e 82 116
e 82 117
e 82 121
e 82 122
e 82 126
e 82 129
e 82 144
e 82 152
e 82 165
e 82 173
e 82 181
e 82 194
e 82 205
e 82 236
e 82 245
e 83 100
e 83 102
e 83 105
e 83 110
e 83 126
e 83 138
e 83 142
e 83 181
e 83 213
e 83 230
e 84 93
e 84 132
e 84 154
e 84 166
e 84 186
e 84 199
e 84 216
e 84 238
e 84 244
e 85 86
e 85 87
e 85 88
e 85 97
e 85 108
e 85 115
e 85 118
e 85 126
e 85 137
e 85 156
e 85 163
e 85 169
e 85 179
e 85 189
e 85 190
e 85 192
e 85 193
e 85 209
e 85 210
e 85 211
e 85 212
e 85 214
e 85 220
e 85 225
e 85 227
e 85 232
e 85 241
e 85 245
e 85 246
e 86 115
e 86 128
e 86 144
e 86 151
e 86 154
e 86 156
e 86 160
e 86 192
e 86 193
e 86 201
e 86 231
e 87 104
e 87 114
e 87 160
e 87 168
e 87 174
e 87 185
e 87 193
e 87 201
e 87 209
e 87 230
e 88 100
e 88 106
e 88 110
e 88 111
e 88 112
e 88 115
e 88 170
e 88 174
e 88 175
e 88 195
e 88 201
e 88 224
e 88 226
e 89 101
e 89 106
e 89 119
e 89 123
e 89 129
e 89 130
e 89 132
e 89 133
e 89 136
e 89 148
e 89 160
e 89 169
e 89 177
e 89 201
e 89 216
e 89 221
e 89 222
e 89 231
e 89 232
e 89 237
e 90 94
e 90 96
e 90 115
e 90 149
e 90 165
e 90 189
e 90 198
e 90 203
e 90 214
e 90 220
e 90 227
e 90 235
e 90 247
e 91 109
e 91 113
e 91 122
e 91 125
e 91 135
e 91 136
e 91 141
e 91 147
e 91 150
e 91 157
e 91 174
e 91 179
e 91 193
e 91 197
e 91 209
e 91 216
e 91 224
e 91 227
e 92 101
e 92 111
e 92 113
e 92 119
e 92 143
e 92 147
e 92 151
e 92 170
e 92 196
e 92 210
e 92 212
e 92 247
e 93 105
e 93 108
e 93 117
e 93 121
e 93 206
e 93 217
e 94 138
e 94 143
e 94 149
e 94 164
e 94 183
e 94 185
e 94 210
e 94 246
e 95 114
e 95 124
e 95 148
e 95 163
e 95 170
e 95 185
e 95 188
e 95 218
e 95 242
e 96 99
e 96 109
e 96 139
e 96 140
e 96 142
e 96 145
e 96 158
e 96 161
e 96 193
e 96 194
e 96 218
e 96 225
e 97 103
e 97 110
e 97 113
e 97 116
e 97 125
e 97 137
e 97 159
e 97 167
e 97 177
e 97 181
e 97 183
e 97 221
e 97 245
e 98 109
e 98 121
e 98 132
e 98 137
e 98 141
e 98 182
e 98 188
e 98 189
e 98 203
e 98 205
e 98 213
e 98 240
e 99 102
e 99 123
e 99 130
e 99 150
e 99 152
e 99 156
e 99 160
e 99 236
e 100 106
e 100 107
e 100 111
e 100 138
e 100 140
e 100 141
e 100 173
e 100 179
e 100 182
e 100 193
e 100 195
e 100 225
e 100 227
e 100 232
e 100 238
e 100 239
e 101 105
e 101 107
e 101 110
e 101 140
e 101 145
e 101 177
e 101 187
e 101 189
e 101 222
e 101 228
e 102 114
e 102 166
e 102 167
e 102 169
e 102 196
e 102 208
e 103 153
e 103 157
e 103 158
e 103 164
e 103 170
e 103 178
e 103 191
e 103 193
e 103 198
e 103 214
e 103 224
e 103 228
e 103 232
e 103 235
e 103 239
e 103 247
e 104 111
e 104 127
e 104 147
e 104 156
e 104 168
e 104 172
e 104 235
e 105 116
e 105 118
e 105 127
e 105 129
e 105 167
e 105 170
e 105 172
e 105 180
e 105 196
e 105 204
e 105 216
e 105 217
e 105 222
e 105 231
e 106 135
e 106 155
e 106 161
e 106 171
e 106 180
e 106 245
e 107 108
e 107 117
e 107 128
e 107 130
e 107 141
e 107 165
e 107 176
e 107 186
e 107 189
e 107 194
e 107 208
e 107 211
e 107 236
e 108 113
e 108 122
e 108 134
e 108 143
e 108 152
e 108 161
e 108 188
e 108 219
e 108 224
e 110 122
e 110 124
e 110 125
e 110 128
e 110 145
e 110 146
e 110 159
e 110 170
e 110 172
e 110 176
e 110 201
e 110 204
e 110 207
e 110 220
e 110 235
e 111 120
e 111 129
e 111 139
e 111 140
e 111 148
e 111 150
e 111 154
e 111 187
e 111 204
e 111 215
e 111 218
e 111 231
e 112 116
e 112 160
e 112 192
e 112 204
e 113 138
e 113 155
e 113 171
e 113 181
e 113 213
e 113 214
e 113 215
e 113 237
e 114 115
e 114 126
e 114 128
e 114 129
e 114 133
e 114 134
e 114 135
e 114 139
e 114 159
e 114 161
e 114 166
e 114 168
e 114 192
e 114 212
e 114 235
e 114 237
e 114 247
e 115 133
e 115 154
e 115 175
e 116 117
e 116 127
e 116 134
e 116 178
e 116 234
e 116 242
e 117 122
e 117 131
e 117 175
e 117 182
e 117 188
e 117 208
e 117 209
e 117 214
e 117 225
e 117 227
e 117 233
e 117 247
e 118 119
e 118 129
e 118 162
e 118 181
e 118 200
e 118 208
e 118 228
e 118 229
e 119 120
e 119 132
e 119 141
e 119 143
e 119 155
e 119 157
e 119 158
e 119 171
e 119 173
e 119 183
e 119 198
e 119 201
e 119 204
e 119 207
e 119 213
e 119 215
e 119 233
e 119 238
e 120 128
e 120 133
e 120 143
e 120 162
e 120 165
e 120 199
e 120 201
e 120 210
e 120 217
e 120 218
e 120 226
e 121 132
e 121 138
e 121 139
e 121 152
e 121 157
e 121 163
e 121 166
e 121 168
e 121 169
e 121 183
e 121 209
e 121 215
e 121 221
e 122 128
e 122 130
e 122 164
e 122 167
e 122 187
e 122 231
e 123 147
e 123 148
e 123 183
e 123 184
e 123 188
e 123 195
e 123 196
e 123 200
e 124 146
e 124 151
e 124 163
e 124 173
e 124 184
e 124 203
e 124 214
e 124 219
e 124 235
e 124 243
e 125 138
e 125 158
e 125 159
e 125 168
e 125 173
e 125 191
e 125 194
e 125 206
e 125 210
e 126 134
e 126 163
e 126 187
e 126 200
e 126 210
e 126 216
e 126 223
e 126 232
e 126 244
e 127 145
e 127 152
e 127 153
e 127 172
e 127 180
e 127 185
e 127 199
e 127 217
e 127 223
e 127 240
e 128 139
e 128 140
e 128 143
e 128 164
e 128 171
e 128 174
e 128 186
e 128 195
e 128 206
e 128 214
e 128 232
e 128 236
e 128 244
e 129 131
e 129 138
e 129 157
e 129 163
e 129 198
e 129 208
e 129 226
e 129 246
e 130 139
e 130 150
e 130 159
e 130 160
e 130 184
e 130 211
e 130 222
e 131 157
e 131 174
e 131 178
e 131 236
e 131 242
e 132 134
e 132 135
e 132 148
e 132 154
e 132 158
e 132 163
e 132 182
e 132 207
e 132 215
e 132 230
e 132 233
e 133 144
e 133 146
e 133 176
e 133 204
e 133 240
e 134 143
e 134 144
e 134 145
e 134 146
e 134 161
e 134 219
e 134 225
e 134 226
e 134 230
e 134 247
e 135 158
e 135 160
e 135 161
e 135 164
e 135 184
e 135 203
e 135 241
e 135 243
e 136 155
e 136 157
e 136 161
e 136 163
e 136 169
e 136 189
e 136 241
e 137 211
e 137 216
e 137 232
e 138 140
e 138 141
e 138 148
e 138 155
e 138 169
e 138 172
e 138 174
e 138 188
e 138 193
e 138 203
e 138 228
e 138 230
e 139 145
e 139 163
e 140 150
e 140 152
e 140 164
e 140 166
e 140 171
e 140 187
e 140 191
e 140 207
e 140 215
e 140 219
e 140 240
e 140 242
e 140 245
e 140 246
e 141 153
e 141 164
e 141 176
e 141 200
e 141 206
e 141 207
e 141 209
e 141 246
e 142 147
e 142 154
e 142 168
e 142 172
e 142 173
e 142 175
e 142 202
e 143 147
e 143 160
e 143 171
e 143 173
e 143 175
e 143 178
e 143 179
e 143 184
e 143 191
e 143 200
e 143 220
e 143 223
e 143 241
e 144 148
e 144 153
e 144 180
e 144 183
e 145 148
e 145 161
e 145 165
e 145 182
e 145 192
e 145 196
e 145 204
e 145 205
e 145 224
e 145 230
e 146 162
e 146 178
e 146 181
e 146 193
e 146 205
e 147 163
e 147 246
e 148 171
e 149 162
e 149 171
e 149 180
e 149 187
e 149 230
e 149 247
e 150 168
e 150 171
e 150 204
e 150 207
e 150 216
e 150 225
e 150 243
e 150 244
e 151 152
e 151 202
e 152 154
e 152 168
e 152 177
e 152 185
e 152 199
e 152 206
e 152 210
e 152 218
e 153 178
e 153 202
e 153 209
e 153 233
e 154 165
e 154 188
e 154 234
e 155 157
e 155 159
e 155 170
e 155 227
e 156 163
e 156 173
e 157 228
e 157 238
e 158 192
e 158 231
e 158 242
e 159 160
e 159 164
e 159 187
e 159 199
e 159 226
e 159 231
e 159 247
e 160 171
e 160 180
e 160 203
e 161 220
e 161 235
e 162 164
e 162 183
e 162 184
e 162 186
e 162 195
e 162 202
e 163 168
e 164 178
e 164 224
e 165 167
e 165 175
e 165 192
e 165 202
e 165 241
e 165 242
e 166 189
e 166 205
e 166 207
e 167 169
e 167 218
e 167 243
e 168 196
e 168 199
e 168 221
e 168 239
e 169 176
e 169 182
e 169 189
e 169 198
e 169 207
e 169 217
e 169 220
e 169 225
e 169 235
e 169 240
e 169 244
e 170 179
e 170 189
e 170 208
e 170 247
e 172 184
e 172 216
e 172 220
e 172 226
e 173 187
e 173 191
e 173 200
e 173 213
e 173 222
e 173 225
e 173 239
e 174 216
e 174 238
e 175 206
e 176 177
e 176 190
e 176 207
e 176 211
e 176 238
e 176 246
e 177 197
e 177 243
e 178 203
e 179 200
e 179 223
e 179 227
e 180 227
e 181 194
e 181 196
e 181 206
e 181 241
e 182 186
e 182 195
e 182 212
e 182 223
e 182 227
e 182 239
e 183 187
e 183 194
e 183 198
e 183 241
e 184 205
e 184 218
e 184 244
e 185 246
e 186 200
e 186 228
e 186 242
e 187 195
e 187 205
e 187 214
e 187 225
e 187 229
e 188 247
e 189 197
e 189 201
e 189 213
e 189 223
e 189 228
e 189 243
e 190 202
e 190 227
e 193 212
e 193 239
e 194 197
e 194 219
e 194 228
e 194 234
e 194 242
e 194 244
e 195 202
e 195 228
e 195 236
e 195 246
e 197 211
e 198 220
e 199 230
e 200 215
e 200 224
e 201 221
e 202 218
e 202 227
e 202 244
e 204 216
e 204 221
e 204 224
e 204 230
e 204 242
e 204 244
e 205 230
e 206 211
e 206 219
e 206 246
e 209 210
e 210 238
e 211 237
e 213 223
e 213 225
e 213 246
e 214 237
e 216 232
e 216 235
e 218 219
e 218 228
e 218 232
e 218 238
e 218 242
e 218 243
e 219 221
e 219 228
e 221 225
e 221 240
e 222 233
e 222 242
e 224 229
e 225 226
e 225 233
e 225 237
e 229 245
e 234 240
e 235 241
e 236 237
e 237 241
e 240 247
